0
Node Left Objective IInf Best_Integer Best_Bound ItCnt Gap
0+ 0 nan nan 1364.7233 0.0000 nan 100.00%
0 0 707.7725 9 1364.7233 707.7725 13 48.14%
0+ 0 nan nan 1256.1229 707.7725 nan 43.65%
0+ 0 nan nan 1098.5732 707.7725 nan 35.57%
0 2 707.7725 9 1098.5732 707.7725 13 35.57%
CPXPARAM_MIP_Cuts_Gomory-Disjunctive:Gomory 0
CPXPARAM_MIP_Cuts_Gomory-Disjunctive:Disjunctive 0
1
Node Left Objective IInf Best_Integer Best_Bound ItCnt Gap
0+ 0 nan nan 1364.7233 0.0000 nan 100.00%
0 0 0 707.7725 707.7725 13 0.00% 0
CPXPARAM_MIP_Cuts_Gomory-Disjunctive:Gomory 0
CPXPARAM_MIP_Cuts_Gomory-Disjunctive:Disjunctive 0
2
Node Left Objective IInf Best_Integer Best_Bound ItCnt Gap
0+ 0 nan nan 1364.7233 0.0000 nan 100.00%
0 0 707.7725 9 1364.7233 707.7725 13 48.14%
0+ 0 nan nan 1256.1229 707.7725 nan 43.65%
0+ 0 nan nan 856.8252 707.7725 nan 17.40%
0 2 707.7725 9 856.8252 707.7725 13 17.40%
CPXPARAM_MIP_Cuts_Gomory-Disjunctive:Gomory 0
CPXPARAM_MIP_Cuts_Gomory-Disjunctive:Disjunctive 0
3
Node Left Objective IInf Best_Integer Best_Bound ItCnt Gap
0+ 0 nan nan 1364.7233 0.0000 nan 100.00%
0 0 0 742.0876 742.0876 12 0.00% 0
CPXPARAM_MIP_Cuts_Gomory-Disjunctive:Gomory 0
CPXPARAM_MIP_Cuts_Gomory-Disjunctive:Disjunctive 0
4
Node Left Objective IInf Best_Integer Best_Bound ItCnt Gap
0+ 0 nan nan 1151.9244 0.0000 nan 100.00%
0 0 804.5059 9 1151.9244 804.5059 12 30.16%
0+ 0 nan nan 1141.1136 804.5059 nan 29.50%
0 0 811.1450 9 1141.1136 Fract:8 36 28.92%
0+ 0 nan nan 889.7105 811.1450 nan 8.83%
0 0 816.5759 9 889.7105 Fract:9 62 8.22%
0 0 819.4157 9 889.7105 Fract:3 85 7.90%
0 0 819.4283 9 889.7105 Fract:1 88 7.90%
0 0 820.9328 9 889.7105 Fract:5 106 7.73%
0 0 822.8925 9 889.7105 Fract:4 120 7.51%
0 0 823.3717 9 889.7105 Fract:2 124 7.46%
0 2 823.3717 9 889.7105 824.3082 124 7.35%
CPXPARAM_MIP_Cuts_Gomory-Disjunctive:Gomory 7
CPXPARAM_MIP_Cuts_Gomory-Disjunctive:Disjunctive 0
5
Node Left Objective IInf Best_Integer Best_Bound ItCnt Gap
0+ 0 nan nan 1151.9244 0.0000 nan 100.00%
0 0 0 804.5059 804.5059 12 0.00% 0
CPXPARAM_MIP_Cuts_Gomory-Disjunctive:Gomory 0
CPXPARAM_MIP_Cuts_Gomory-Disjunctive:Disjunctive 0
6
Node Left Objective IInf Best_Integer Best_Bound ItCnt Gap
0+ 0 nan nan 1151.9244 0.0000 nan 100.00%
0 0 804.5059 9 1151.9244 804.5059 12 30.16%
0+ 0 nan nan 1141.1136 804.5059 nan 29.50%
0 0 811.4660 9 1141.1136 Fract:8 38 28.89%
0+ 0 nan nan 889.7105 811.4660 nan 8.79%
0 0 817.4251 8 889.7105 Fract:9 60 8.12%
0 0 819.2225 8 889.7105 Fract:4 72 7.92%
0 0 822.1674 8 889.7105 Fract:6 87 7.59%
0 0 822.2087 8 889.7105 Fract:3 95 7.59%
0 0 822.2167 8 889.7105 Fract:1 98 7.59%
0 0 822.3736 8 889.7105 Fract:2 106 7.57%
0 0 822.4576 9 889.7105 Fract:1 111 7.56%
0 2 823.7561 7 889.7105 824.0855 111 7.38%
CPXPARAM_MIP_Cuts_Gomory-Disjunctive:Gomory 7
CPXPARAM_MIP_Cuts_Gomory-Disjunctive:Disjunctive 0
7
Node Left Objective IInf Best_Integer Best_Bound ItCnt Gap
0+ 0 nan nan 1151.9244 0.0000 nan 100.00%
0 0 0 804.5059 804.5059 12 0.00% 0
CPXPARAM_MIP_Cuts_Gomory-Disjunctive:Gomory 0
CPXPARAM_MIP_Cuts_Gomory-Disjunctive:Disjunctive 0
8
Node Left Objective IInf Best_Integer Best_Bound ItCnt Gap
0+ 0 nan nan 1316.0374 0.0000 nan 100.00%
0 0 989.3200 9 1316.0374 989.3200 12 24.83%
0+ 0 nan nan 1297.4734 989.3200 nan 23.75%
0+ 0 nan nan 1148.2856 989.3200 nan 13.84%
0 2 989.3200 9 1148.2856 989.3200 12 13.84%
CPXPARAM_MIP_Cuts_Gomory-Disjunctive:Gomory 0
CPXPARAM_MIP_Cuts_Gomory-Disjunctive:Disjunctive 0
9
Node Left Objective IInf Best_Integer Best_Bound ItCnt Gap
0+ 0 nan nan 1316.0374 0.0000 nan 100.00%
0 0 0 989.3200 989.3200 12 0.00% 0
CPXPARAM_MIP_Cuts_Gomory-Disjunctive:Gomory 0
CPXPARAM_MIP_Cuts_Gomory-Disjunctive:Disjunctive 0
10
Node Left Objective IInf Best_Integer Best_Bound ItCnt Gap
0+ 0 nan nan 1316.0374 0.0000 nan 100.00%
0 0 989.3200 9 1316.0374 989.3200 12 24.83%
0+ 0 nan nan 1297.4734 989.3200 nan 23.75%
0+ 0 nan nan 1149.3259 989.3200 nan 13.92%
0 2 989.3200 9 1149.3259 989.3200 12 13.92%
CPXPARAM_MIP_Cuts_Gomory-Disjunctive:Gomory 0
CPXPARAM_MIP_Cuts_Gomory-Disjunctive:Disjunctive 0
11
Node Left Objective IInf Best_Integer Best_Bound ItCnt Gap
0+ 0 nan nan 1316.0374 0.0000 nan 100.00%
0 0 0 989.3200 989.3200 12 0.00% 0
CPXPARAM_MIP_Cuts_Gomory-Disjunctive:Gomory 0
CPXPARAM_MIP_Cuts_Gomory-Disjunctive:Disjunctive 0
12
Node Left Objective IInf Best_Integer Best_Bound ItCnt Gap
0+ 0 nan nan 1103.5671 0.0000 nan 100.00%
0 0 805.3814 9 1103.5671 805.3814 12 27.02%
0 0 827.4077 8 1103.5671 Fract:7 40 25.02%
0+ 0 nan nan 982.2314 827.4077 nan 15.76%
0 0 836.4233 9 982.2314 Fract:5 70 14.84%
0 2 836.4233 9 982.2314 838.0557 70 14.68%
CPXPARAM_MIP_Cuts_Gomory-Disjunctive:Gomory 7
CPXPARAM_MIP_Cuts_Gomory-Disjunctive:Disjunctive 0
13
Node Left Objective IInf Best_Integer Best_Bound ItCnt Gap
0+ 0 nan nan 1103.5671 0.0000 nan 100.00%
0 0 0 805.3814 805.3814 13 0.00% 0
CPXPARAM_MIP_Cuts_Gomory-Disjunctive:Gomory 0
CPXPARAM_MIP_Cuts_Gomory-Disjunctive:Disjunctive 0
14
Node Left Objective IInf Best_Integer Best_Bound ItCnt Gap
0+ 0 nan nan 1103.5671 0.0000 nan 100.00%
0 0 805.3814 9 1103.5671 805.3814 13 27.02%
0 0 827.4329 8 1103.5671 Fract:7 39 25.02%
0+ 0 nan nan 982.2314 827.4329 nan 15.76%
0 0 832.9095 9 982.2314 Fract:3 53 15.20%
0 0 836.3379 9 982.2314 Fract:4 81 14.85%
0 0 837.4048 9 982.2314 Fract:1 91 14.74%
0 0 839.0205 9 982.2314 Fract:1 98 14.58%
0 0 840.2546 9 982.2314 Fract:1 106 14.45%
0 0 840.7312 9 982.2314 Fract:1 109 14.41%
0 2 840.7312 9 982.2314 841.1419 109 14.36%
CPXPARAM_MIP_Cuts_Gomory-Disjunctive:Gomory 10
CPXPARAM_MIP_Cuts_Gomory-Disjunctive:Disjunctive 0
15
Node Left Objective IInf Best_Integer Best_Bound ItCnt Gap
0+ 0 nan nan 1103.5671 0.0000 nan 100.00%
0 0 0 805.3814 805.3814 13 0.00% 0
CPXPARAM_MIP_Cuts_Gomory-Disjunctive:Gomory 0
CPXPARAM_MIP_Cuts_Gomory-Disjunctive:Disjunctive 0
16
Node Left Objective IInf Best_Integer Best_Bound ItCnt Gap
0+ 0 nan nan 1092.9842 0.0000 nan 100.00%
0 0 876.8822 9 1092.9842 876.8822 11 19.77%
0+ 0 nan nan 1089.1526 876.8822 nan 19.49%
0 0 885.6309 9 1089.1526 Fract:6 28 18.69%
0+ 0 nan nan 973.2614 885.6309 nan 9.00%
0 0 887.3097 8 973.2614 Fract:1 33 8.83%
0 0 890.7220 9 973.2614 Fract:6 50 8.48%
0 2 891.5838 8 973.2614 891.6628 50 8.38%
CPXPARAM_MIP_Cuts_Gomory-Disjunctive:Gomory 5
CPXPARAM_MIP_Cuts_Gomory-Disjunctive:Disjunctive 0
17
Node Left Objective IInf Best_Integer Best_Bound ItCnt Gap
0+ 0 nan nan 1092.9842 0.0000 nan 100.00%
0 0 0 876.8822 876.8822 10 0.00% 0
CPXPARAM_MIP_Cuts_Gomory-Disjunctive:Gomory 0
CPXPARAM_MIP_Cuts_Gomory-Disjunctive:Disjunctive 0
18
Node Left Objective IInf Best_Integer Best_Bound ItCnt Gap
0+ 0 nan nan 1092.9842 0.0000 nan 100.00%
0 0 876.8822 9 1092.9842 876.8822 11 19.77%
0+ 0 nan nan 1089.1526 876.8822 nan 19.49%
0 0 885.7941 9 1089.1526 Fract:6 28 18.67%
0+ 0 nan nan 973.2614 885.7941 nan 8.99%
0 2 887.5829 7 973.2614 888.7459 28 8.68%
CPXPARAM_MIP_Cuts_Gomory-Disjunctive:Gomory 5
CPXPARAM_MIP_Cuts_Gomory-Disjunctive:Disjunctive 0
19
Node Left Objective IInf Best_Integer Best_Bound ItCnt Gap
0+ 0 nan nan 1092.9842 0.0000 nan 100.00%
0 0 0 876.8822 876.8822 10 0.00% 0
CPXPARAM_MIP_Cuts_Gomory-Disjunctive:Gomory 0
CPXPARAM_MIP_Cuts_Gomory-Disjunctive:Disjunctive 0
20
Node Left Objective IInf Best_Integer Best_Bound ItCnt Gap
0+ 0 nan nan 933.7925 0.0000 nan 100.00%
0 0 586.9854 9 933.7925 586.9854 12 37.14%
0+ 0 nan nan 921.6569 586.9854 nan 36.31%
0 0 598.3336 9 921.6569 Fract:8 56 35.08%
0+ 0 nan nan 704.4991 598.3336 nan 15.07%
0 0 604.1861 9 704.4991 Fract:6 92 14.24%
0 0 608.8876 8 704.4991 Fract:8 120 13.57%
0+ 0 nan nan 677.4287 608.8876 nan 10.12%
0 0 611.1793 8 677.4287 Fract:4 141 9.78%
0 2 613.7790 7 677.4287 614.3635 141 9.31%
CPXPARAM_MIP_Cuts_Gomory-Disjunctive:Gomory 7
CPXPARAM_MIP_Cuts_Gomory-Disjunctive:Disjunctive 0
21
Node Left Objective IInf Best_Integer Best_Bound ItCnt Gap
0+ 0 nan nan 933.7925 0.0000 nan 100.00%
0 0 0 586.9854 586.9854 12 0.00% 0
CPXPARAM_MIP_Cuts_Gomory-Disjunctive:Gomory 0
CPXPARAM_MIP_Cuts_Gomory-Disjunctive:Disjunctive 0
22
Node Left Objective IInf Best_Integer Best_Bound ItCnt Gap
0+ 0 nan nan 933.7925 0.0000 nan 100.00%
0 0 586.9854 9 933.7925 586.9854 12 37.14%
0+ 0 nan nan 921.6569 586.9854 nan 36.31%
0 0 599.1664 7 921.6569 Fract:8 68 34.99%
0+ 0 nan nan 704.4991 599.1664 nan 14.95%
0 0 602.8342 8 704.4991 Fract:8 90 14.43%
0 0 607.0866 8 704.4991 Fract:5 128 13.83%
0 0 615.4810 8 704.4991 Fract:6 164 12.64%
0+ 0 nan nan 677.4287 615.4810 nan 9.14%
0 0 616.0348 8 677.4287 Fract:2 169 9.06%
0 2 626.4430 6 677.4287 632.1879 169 6.68%
CPXPARAM_MIP_Cuts_Gomory-Disjunctive:Gomory 8
CPXPARAM_MIP_Cuts_Gomory-Disjunctive:Disjunctive 0
23
Node Left Objective IInf Best_Integer Best_Bound ItCnt Gap
0+ 0 nan nan 933.7925 0.0000 nan 100.00%
0 0 0 588.1816 588.1816 12 0.00% 0
CPXPARAM_MIP_Cuts_Gomory-Disjunctive:Gomory 0
CPXPARAM_MIP_Cuts_Gomory-Disjunctive:Disjunctive 0
24
Node Left Objective IInf Best_Integer Best_Bound ItCnt Gap
0+ 0 nan nan 945.0450 0.0000 nan 100.00%
0 0 691.3327 9 945.0450 691.3327 13 26.85%
0+ 0 nan nan 939.6644 691.3327 nan 26.43%
0 0 696.3158 9 939.6644 Fract:8 39 25.90%
0+ 0 nan nan 786.7113 696.3158 nan 11.49%
0 0 703.5250 9 786.7113 Fract:3 61 10.57%
0 0 706.3491 9 786.7113 Fract:8 91 10.21%
0 0 708.1240 9 786.7113 Fract:7 134 9.99%
0+ 0 nan nan 754.8601 708.1240 nan 6.19%
0 2 708.4710 8 754.8601 708.6069 134 6.13%
CPXPARAM_MIP_Cuts_Gomory-Disjunctive:Gomory 10
CPXPARAM_MIP_Cuts_Gomory-Disjunctive:Disjunctive 0
25
Node Left Objective IInf Best_Integer Best_Bound ItCnt Gap
0+ 0 nan nan 945.0450 0.0000 nan 100.00%
0 0 0 691.3327 691.3327 13 0.00% 0
CPXPARAM_MIP_Cuts_Gomory-Disjunctive:Gomory 0
CPXPARAM_MIP_Cuts_Gomory-Disjunctive:Disjunctive 0
26
Node Left Objective IInf Best_Integer Best_Bound ItCnt Gap
0+ 0 nan nan 945.0450 0.0000 nan 100.00%
0 0 691.3794 8 945.0450 691.3794 14 26.84%
0+ 0 nan nan 938.3845 691.3794 nan 26.32%
0 0 708.5196 8 938.3845 Fract:8 56 24.50%
0+ 0 nan nan 794.3733 708.5196 nan 10.81%
0 0 711.0273 7 794.3733 Fract:8 66 10.49%
0+ 0 nan nan 754.8601 711.0273 nan 5.81%
0 0 711.9608 8 754.8601 Fract:3 88 5.68%
0 0 713.7959 8 754.8601 Fract:4 123 5.44%
0 2 713.7959 8 754.8601 713.8900 123 5.43%
CPXPARAM_MIP_Cuts_Gomory-Disjunctive:Gomory 8
CPXPARAM_MIP_Cuts_Gomory-Disjunctive:Disjunctive 0
27
Node Left Objective IInf Best_Integer Best_Bound ItCnt Gap
0+ 0 nan nan 945.0450 0.0000 nan 100.00%
0 0 0 691.3327 691.3327 14 0.00% 0
CPXPARAM_MIP_Cuts_Gomory-Disjunctive:Gomory 0
CPXPARAM_MIP_Cuts_Gomory-Disjunctive:Disjunctive 0
28
Node Left Objective IInf Best_Integer Best_Bound ItCnt Gap
0+ 0 nan nan 1337.0922 0.0000 nan 100.00%
0 0 1047.8755 8 1337.0922 1047.8755 13 21.63%
0+ 0 nan nan 1259.7351 1047.8755 nan 16.82%
0 0 1056.1341 9 1259.7351 Fract:5 51 16.16%
0+ 0 nan nan 1203.0619 1056.1341 nan 12.21%
0 0 1062.3176 9 1203.0619 Fract:6 65 11.70%
0+ 0 nan nan 1167.4501 1062.3176 nan 9.01%
0 0 1063.2003 9 1167.4501 Fract:4 75 8.93%
0+ 0 nan nan 1148.1042 1063.2003 nan 7.40%
0 2 1064.7536 8 1148.1042 1065.0277 75 7.24%
CPXPARAM_MIP_Cuts_Gomory-Disjunctive:Gomory 8
CPXPARAM_MIP_Cuts_Gomory-Disjunctive:Disjunctive 0
29
Node Left Objective IInf Best_Integer Best_Bound ItCnt Gap
0+ 0 nan nan 1337.0922 0.0000 nan 100.00%
0 0 0 1047.8755 1047.8755 12 0.00% 0
CPXPARAM_MIP_Cuts_Gomory-Disjunctive:Gomory 0
CPXPARAM_MIP_Cuts_Gomory-Disjunctive:Disjunctive 0
30
Node Left Objective IInf Best_Integer Best_Bound ItCnt Gap
0+ 0 nan nan 1337.0922 0.0000 nan 100.00%
0 0 1047.8755 9 1337.0922 1047.8755 12 21.63%
0+ 0 nan nan 1316.0757 1047.8755 nan 20.38%
0 0 1059.0682 8 1316.0757 Fract:6 46 19.53%
0+ 0 nan nan 1167.4501 1059.0682 nan 9.28%
0 0 1070.7792 9 1167.4501 Fract:8 69 8.28%
0 2 1070.7792 9 1167.4501 1071.1021 69 8.25%
CPXPARAM_MIP_Cuts_Gomory-Disjunctive:Gomory 8
CPXPARAM_MIP_Cuts_Gomory-Disjunctive:Disjunctive 0
31
Node Left Objective IInf Best_Integer Best_Bound ItCnt Gap
0+ 0 nan nan 1337.0922 0.0000 nan 100.00%
0 0 0 1047.8755 1047.8755 12 0.00% 0
CPXPARAM_MIP_Cuts_Gomory-Disjunctive:Gomory 0
CPXPARAM_MIP_Cuts_Gomory-Disjunctive:Disjunctive 0
32
Node Left Objective IInf Best_Integer Best_Bound ItCnt Gap
0+ 0 nan nan 1107.0587 0.0000 nan 100.00%
0 0 690.4898 9 1107.0587 690.4898 12 37.63%
0+ 0 nan nan 1030.0515 690.4898 nan 32.97%
0 0 698.7805 9 1030.0515 Fract:7 45 32.16%
0+ 0 nan nan 801.1518 698.7805 nan 12.78%
0 0 700.6159 9 801.1518 Fract:1 52 12.55%
0 0 701.6656 9 801.1518 Fract:8 58 12.42%
0 0 704.1077 9 801.1518 Fract:2 72 12.11%
0 0 704.4318 9 801.1518 Fract:6 82 12.07%
0 2 705.2098 8 801.1518 705.6977 82 11.91%
CPXPARAM_MIP_Cuts_Gomory-Disjunctive:Gomory 8
CPXPARAM_MIP_Cuts_Gomory-Disjunctive:Disjunctive 0
33
Node Left Objective IInf Best_Integer Best_Bound ItCnt Gap
0+ 0 nan nan 1107.0587 0.0000 nan 100.00%
0 0 0 690.4898 690.4898 12 0.00% 0
CPXPARAM_MIP_Cuts_Gomory-Disjunctive:Gomory 0
CPXPARAM_MIP_Cuts_Gomory-Disjunctive:Disjunctive 0
34
Node Left Objective IInf Best_Integer Best_Bound ItCnt Gap
0+ 0 nan nan 1107.0587 0.0000 nan 100.00%
0 0 690.4898 9 1107.0587 690.4898 12 37.63%
0+ 0 nan nan 1030.0515 690.4898 nan 32.97%
0 0 699.6352 8 1030.0515 Fract:7 44 32.08%
0+ 0 nan nan 801.1518 699.6352 nan 12.67%
0 0 702.0660 9 801.1518 Fract:3 66 12.37%
0 0 704.3103 8 801.1518 Fract:6 113 12.09%
0 2 704.9322 8 801.1518 705.8377 113 11.90%
CPXPARAM_MIP_Cuts_Gomory-Disjunctive:Gomory 9
CPXPARAM_MIP_Cuts_Gomory-Disjunctive:Disjunctive 0
35
Node Left Objective IInf Best_Integer Best_Bound ItCnt Gap
0+ 0 nan nan 1107.0587 0.0000 nan 100.00%
0 0 0 690.4898 690.4898 12 0.00% 0
CPXPARAM_MIP_Cuts_Gomory-Disjunctive:Gomory 0
CPXPARAM_MIP_Cuts_Gomory-Disjunctive:Disjunctive 0
36
Node Left Objective IInf Best_Integer Best_Bound ItCnt Gap
0+ 0 nan nan 1237.1346 0.0000 nan 100.00%
0 0 813.3288 9 1237.1346 813.3288 13 34.26%
0+ 0 nan nan 1129.0032 813.3288 nan 27.96%
0+ 0 nan nan 923.2042 813.3288 nan 11.90%
0 2 813.3288 9 923.2042 813.3288 13 11.90%
CPXPARAM_MIP_Cuts_Gomory-Disjunctive:Gomory 0
CPXPARAM_MIP_Cuts_Gomory-Disjunctive:Disjunctive 0
37
Node Left Objective IInf Best_Integer Best_Bound ItCnt Gap
0+ 0 nan nan 1237.1346 0.0000 nan 100.00%
0 0 0 813.3288 813.3288 12 0.00% 0
CPXPARAM_MIP_Cuts_Gomory-Disjunctive:Gomory 0
CPXPARAM_MIP_Cuts_Gomory-Disjunctive:Disjunctive 0
38
Node Left Objective IInf Best_Integer Best_Bound ItCnt Gap
0+ 0 nan nan 1237.1346 0.0000 nan 100.00%
0 0 813.3288 9 1237.1346 813.3288 12 34.26%
0+ 0 nan nan 1129.0032 813.3288 nan 27.96%
0+ 0 nan nan 973.2548 813.3288 nan 16.43%
0 2 813.3288 9 973.2548 813.3288 12 16.43%
CPXPARAM_MIP_Cuts_Gomory-Disjunctive:Gomory 0
CPXPARAM_MIP_Cuts_Gomory-Disjunctive:Disjunctive 0
39
Node Left Objective IInf Best_Integer Best_Bound ItCnt Gap
0+ 0 nan nan 1237.1346 0.0000 nan 100.00%
0 0 0 813.3288 813.3288 13 0.00% 0
CPXPARAM_MIP_Cuts_Gomory-Disjunctive:Gomory 0
CPXPARAM_MIP_Cuts_Gomory-Disjunctive:Disjunctive 0
